c 
c G(k,n,p) graph
c graph gen seed     : 14772
c number of vertices : 70
c max number of edges: 1225
c number of classes  : 2
c edge density       : 0.200000
c edge probability   : 0.400000
c data structure     : sparse
c
c           Graph Stats
c number of vertices  : 70
c nonisolated vertices: 70
c number of edges     : 498
c edge density        : 0.206211
c max degree          : 21
c avg degree          : 14.23
c min degree          : 9
p col 70 498
e 1 65
e 1 59
e 1 57
e 1 50
e 1 48
e 1 44
e 1 34
e 1 31
e 1 25
e 1 24
e 1 22
e 1 18
e 1 8
e 1 4
e 1 3
e 2 70
e 2 64
e 2 55
e 2 52
e 2 51
e 2 43
e 2 36
e 2 35
e 2 17
e 2 11
e 2 10
e 3 60
e 3 55
e 3 51
e 3 45
e 3 42
e 3 41
e 3 40
e 3 35
e 3 26
e 3 16
e 3 13
e 3 6
e 4 68
e 4 67
e 4 62
e 4 49
e 4 36
e 4 35
e 4 30
e 4 29
e 4 16
e 4 13
e 4 5
e 5 69
e 5 59
e 5 57
e 5 53
e 5 48
e 5 44
e 5 39
e 5 33
e 5 31
e 5 25
e 5 24
e 5 23
e 5 21
e 5 14
e 6 69
e 6 65
e 6 54
e 6 50
e 6 48
e 6 44
e 6 34
e 6 32
e 6 31
e 6 28
e 6 21
e 6 20
e 6 19
e 7 65
e 7 54
e 7 53
e 7 48
e 7 44
e 7 37
e 7 34
e 7 33
e 7 24
e 7 18
e 8 70
e 8 64
e 8 49
e 8 45
e 8 38
e 8 30
e 8 26
e 8 11
e 9 69
e 9 65
e 9 59
e 9 46
e 9 44
e 9 39
e 9 34
e 9 33
e 9 31
e 9 28
e 9 25
e 9 22
e 9 21
e 9 20
e 9 19
e 9 18
e 10 69
e 10 66
e 10 58
e 10 48
e 10 47
e 10 37
e 10 34
e 10 33
e 10 32
e 10 31
e 10 25
e 10 24
e 10 23
e 10 22
e 10 19
e 10 18
e 11 65
e 11 61
e 11 59
e 11 53
e 11 48
e 11 46
e 11 44
e 11 39
e 11 32
e 11 25
e 11 24
e 11 23
e 11 22
e 11 21
e 11 20
e 11 19
e 12 69
e 12 66
e 12 59
e 12 54
e 12 50
e 12 47
e 12 34
e 12 33
e 12 22
e 12 21
e 12 18
e 13 69
e 13 61
e 13 58
e 13 57
e 13 53
e 13 50
e 13 47
e 13 46
e 13 44
e 13 37
e 13 32
e 13 28
e 13 25
e 13 20
e 13 18
e 13 14
e 14 67
e 14 62
e 14 52
e 14 43
e 14 42
e 14 41
e 14 40
e 14 38
e 14 36
e 14 35
e 14 30
e 14 29
e 15 69
e 15 59
e 15 58
e 15 57
e 15 53
e 15 48
e 15 44
e 15 37
e 15 24
e 15 19
e 15 18
e 16 65
e 16 58
e 16 54
e 16 53
e 16 50
e 16 39
e 16 34
e 16 33
e 16 31
e 16 28
e 16 23
e 16 21
e 16 20
e 16 19
e 17 58
e 17 57
e 17 54
e 17 44
e 17 34
e 17 32
e 17 31
e 17 23
e 17 19
e 18 70
e 18 68
e 18 63
e 18 62
e 18 56
e 18 51
e 18 49
e 18 42
e 18 41
e 18 40
e 18 26
e 19 64
e 19 49
e 19 45
e 19 40
e 19 38
e 19 35
e 19 27
e 19 26
e 20 64
e 20 63
e 20 62
e 20 51
e 20 49
e 20 43
e 20 42
e 20 38
e 20 36
e 20 26
e 21 63
e 21 60
e 21 56
e 21 49
e 21 45
e 21 42
e 21 41
e 21 40
e 21 36
e 21 35
e 21 29
e 21 27
e 22 60
e 22 52
e 22 49
e 22 45
e 22 42
e 22 41
e 22 36
e 22 27
e 22 26
e 23 68
e 23 67
e 23 64
e 23 60
e 23 52
e 23 43
e 23 42
e 23 30
e 24 68
e 24 64
e 24 63
e 24 60
e 24 52
e 24 51
e 24 45
e 24 43
e 24 42
e 24 41
e 24 38
e 24 30
e 24 29
e 25 67
e 25 64
e 25 55
e 25 52
e 25 49
e 25 40
e 25 30
e 25 29
e 25 27
e 26 69
e 26 65
e 26 61
e 26 59
e 26 57
e 26 53
e 26 46
e 26 33
e 27 59
e 27 58
e 27 57
e 27 54
e 27 50
e 27 44
e 27 34
e 27 32
e 27 31
e 27 28
e 28 67
e 28 64
e 28 52
e 28 49
e 28 45
e 28 43
e 28 42
e 28 41
e 28 36
e 28 35
e 28 30
e 29 65
e 29 54
e 29 53
e 29 50
e 29 46
e 29 37
e 29 33
e 30 69
e 30 44
e 30 37
e 30 34
e 30 32
e 31 67
e 31 63
e 31 60
e 31 56
e 31 55
e 31 49
e 31 41
e 31 38
e 31 36
e 31 35
e 32 63
e 32 60
e 32 56
e 32 45
e 32 43
e 32 42
e 32 41
e 32 40
e 33 70
e 33 68
e 33 64
e 33 63
e 33 62
e 33 56
e 33 55
e 33 52
e 33 43
e 33 36
e 33 35
e 34 70
e 34 67
e 34 56
e 34 55
e 34 51
e 34 40
e 34 36
e 34 35
e 35 65
e 35 61
e 35 57
e 35 54
e 35 50
e 35 48
e 35 47
e 35 39
e 36 66
e 36 59
e 36 53
e 36 48
e 36 47
e 36 46
e 36 44
e 36 39
e 37 64
e 37 60
e 37 55
e 37 52
e 37 43
e 37 42
e 37 40
e 38 65
e 38 53
e 38 50
e 39 64
e 39 62
e 39 60
e 39 56
e 39 55
e 39 43
e 39 42
e 39 41
e 39 40
e 40 65
e 40 59
e 40 53
e 40 47
e 41 69
e 41 66
e 41 65
e 41 61
e 41 57
e 41 48
e 41 47
e 42 61
e 42 50
e 42 47
e 43 61
e 43 59
e 43 57
e 43 53
e 43 50
e 43 44
e 44 67
e 44 64
e 44 63
e 44 60
e 44 56
e 44 55
e 44 51
e 44 45
e 45 65
e 45 50
e 45 46
e 46 70
e 46 67
e 46 63
e 46 62
e 46 60
e 46 51
e 47 70
e 47 68
e 47 64
e 48 68
e 48 64
e 48 63
e 48 62
e 48 60
e 48 56
e 48 55
e 48 52
e 49 66
e 49 65
e 49 58
e 50 68
e 50 62
e 51 66
e 51 57
e 51 54
e 52 69
e 52 65
e 52 61
e 53 70
e 53 68
e 53 64
e 53 63
e 54 68
e 54 64
e 54 62
e 55 69
e 55 66
e 55 65
e 55 59
e 55 58
e 55 57
e 56 66
e 56 58
e 57 62
e 58 68
e 58 67
e 58 63
e 58 62
e 59 68
e 59 67
e 59 63
e 61 67
e 63 69
e 63 66
e 64 69
e 64 65
e 65 70
e 65 68
e 69 70
